RAW/CMTY/fspd-long/CMT7Y.vrp_seed-6.out
900.1193343	158.328	337.853
