RAW/CMTY/fspd-long/CMT7Y.vrp_seed-6.sol
Route #1: 67 34 46 52 4 75
Route #2: 36 71 60 70 20 37
Route #3: 73 1 42 64 22 62 68
Route #4: 6 33 43 41 56 23 63
Route #5: 7 35 53 11 66 65 38
Route #6: 30 74 21 69 61 28 2
Route #7: 17 40 44 3 24 49 16 51
Route #8: 32 50 18 55 25 9
Route #9: 13 54 59 14 19 8
Route #10: 26 58 10 31 39 72 12
Route #11: 45 29 48 47 5 15 57 27
Cost 900.119334